============================[ Problem Statistics ]=============================
|                                                                             |
|  Number of variables:           300                                         |
|  Number of clauses:            1320                                         |
|  Parse time:                   0.00 s                                       |
|  Eliminated clauses:           0.00 Mb                                      |
|  Simplification time:          0.00 s                                       |
|                                                                             |
============================[ Search Statistics ]==============================
| Conflicts |          ORIGINAL         |          LEARNT          | Progress |
|           |    Vars  Clauses Literals |    Limit  Clauses Lit/Cl |          |
===============================================================================
|       100 |     291     1287     3896 |      471      100     16 |  0.001 % |
|       250 |     291     1287     3896 |      519      250     14 |  0.001 % |
|       475 |     291     1287     3896 |      570      475     14 |  0.001 % |
|       812 |     291     1287     3896 |      628      515     14 |  0.001 % |
|      1318 |     291     1287     3896 |      690      372     12 |  0.001 % |
|      2077 |     291     1287     3896 |      759      424     12 |  0.001 % |
|      3216 |     291     1287     3896 |      835      392     11 |  0.001 % |
|      4924 |     291     1287     3896 |      919      791     12 |  0.001 % |
|      7486 |     291     1287     3896 |     1011      506     10 |  0.001 % |
|     11330 |     291     1287     3896 |     1112      714     12 |  0.001 % |
|     17096 |     291     1287     3896 |     1223      789     12 |  0.001 % |
|     25745 |     291     1287     3896 |     1346      704     11 |  0.001 % |
|     38719 |     291     1287     3896 |     1481     1321     14 |  0.001 % |
|     58180 |     291     1287     3896 |     1629     1201     13 |  0.001 % |
|     87372 |     291     1287     3896 |     1792     1418     12 |  0.001 % |
|    131161 |     291     1287     3896 |     1971     1682     14 |  0.001 % |
|    196845 |     291     1287     3896 |     2168     1492     12 |  0.001 % |
|    295371 |     291     1287     3896 |     2385     1310     13 |  0.001 % |
|    443160 |     291     1287     3896 |     2623     1878     13 |  0.001 % |
|    664843 |     291     1287     3896 |     2886     2060     14 |  0.001 % |
|    997368 |     291     1287     3896 |     3174     2164     13 |  0.001 % |
|   1496156 |     291     1287     3896 |     3492     2847     15 |  0.001 % |
|   2244338 |     291     1287     3896 |     3841     2515     14 |  0.001 % |
===============================================================================
restarts              : 5121
conflicts             : 2973670        (52646 /sec)
decisions             : 3599524        (0.00 % random) (63726 /sec)
propagations          : 144270703      (2554187 /sec)
conflict literals     : 43445740       (22.59 % deleted)
Memory used           : 5.00 MB
CPU time              : 56.484 s

UNSATISFIABLE